% demand
num_movements = 33;
loading_factor = [1200, 1000, 1900, 1450, 1350, 1100, 1700, 1350, 1400, 850, 1700, 1750, 1300, 1050, 1200, 1600, 1900, 950, 1000, 1750, 2000, 1500, 1750, 1400, 1800, 900, 950, 1100, 850, 1750, 1250, 1850, 1100];
pickup_time = [0, 0, 0, 0, 1, 2, 2, 2, 2, 4, 4, 4, 4, 6, 6, 6, 6, 6, 7, 8, 8, 8, 8, 9, 9, 9, 9, 9, 9, 10, 10, 10, 10];
delivery_time = [2, 1, 2, 4, 2, 6, 4, 4, 4, 6, 6, 6, 6, 8, 7, 7, 7, 7, 8, 9, 9, 9, 9, 10, 10, 10, 11, 10, 10, 11, 11, 11, 11];

% transporter definition
total_capacity = 7000;
num_decks = 3;
capacity = [3000, 1000, 3000];

% ways out of decks
num_ways_out = 1;
paths_out = array3d(decks, ways_out, decks, [
% ways out of deck d1
2, 3, 0, 

% ways out of deck d2
3, 0, 0, 

% ways out of deck d3
0, 0, 0,	

]);

